Generated by ATOMKIT code
 1.000000
    9.7918000000000003    0.0000000000000000    0.0000000000000000
    0.0000000000000005    8.4800000000000004    0.0000000000000000
    0.0000000000000018    0.0000000000000018   30.0000000000000000
      Pt      Ne
      36      12
Direct
    0.0734500000000000    0.2583200000000000    0.0486800000000000    Pt0001
    0.3234500000000000    0.0916500000000000    0.0486800000000000    Pt0002
    0.5734500000000000    0.2583200000000000    0.0486800000000000    Pt0003
    0.8234500000000000    0.0916500000000000    0.0486800000000000    Pt0004
    0.0734500000000000    0.5916500000000000    0.0486800000000000    Pt0005
    0.3234500000000000    0.4249800000000000    0.0486800000000000    Pt0006
    0.5734500000000000    0.5916500000000000    0.0486800000000000    Pt0007
    0.8234500000000000    0.4249800000000000    0.0486800000000000    Pt0008
    0.0734500000000000    0.9249800000000000    0.0486800000000000    Pt0009
    0.3234500000000000    0.7583200000000000    0.0486800000000000    Pt0010
    0.5734500000000000    0.9249800000000000    0.0486800000000000    Pt0011
    0.8234500000000000    0.7583200000000000    0.0486800000000000    Pt0012
    0.1567800000000000    0.4249800000000000    0.1670400000000000    Pt0013
    0.4067800000000000    0.2583200000000000    0.1670400000000000    Pt0014
    0.4067800000000000    0.5916500000000000    0.1670400000000000    Pt0015
    0.1567800000000000    0.0916500000000000    0.1670400000000000    Pt0016
    0.6567800000000000    0.4249800000000000    0.1670400000000000    Pt0017
    0.9067800000000000    0.5916500000000000    0.1670400000000000    Pt0018
    0.6567800000000000    0.0916500000000000    0.1670400000000000    Pt0019
    0.1567800000000000    0.7583200000000000    0.1670400000000000    Pt0020
    0.4067800000000000    0.9249800000000000    0.1670400000000000    Pt0021
    0.6567800000000000    0.7583200000000000    0.1670400000000000    Pt0022
    0.9067800000000000    0.2583200000000000    0.1670400000000000    Pt0023
    0.9067800000000000    0.9249800000000000    0.1670400000000000    Pt0024
    0.9901200000000000    0.7583200000000000    0.2854000000000000    Pt0025
    0.9901200000000000    0.4249800000000000    0.2854000000000000    Pt0026
    0.9901200000000000    0.0916500000000000    0.2854000000000000    Pt0027
    0.2401200000000000    0.9249800000000000    0.2854000000000000    Pt0028
    0.4901200000000000    0.0916500000000000    0.2854000000000000    Pt0029
    0.7401200000000000    0.2583200000000000    0.2854000000000000    Pt0030
    0.4901200000000000    0.7583200000000000    0.2854000000000000    Pt0031
    0.7401200000000000    0.5916500000000000    0.2854000000000000    Pt0032
    0.2401200000000000    0.5916500000000000    0.2854000000000000    Pt0033
    0.7401200000000000    0.9249800000000000    0.2854000000000000    Pt0034
    0.4901200000000000    0.4249800000000000    0.2854000000000000    Pt0035
    0.2401200000000000    0.2583200000000000    0.2854000000000000    Pt0036
    0.9901200000000000    0.7583200000000000    0.6256100000000000    Ne0001
    0.9901200000000000    0.4249800000000000    0.6256100000000000    Ne0002
    0.9901200000000000    0.0916500000000000    0.6256100000000000    Ne0003
    0.2401200000000000    0.9249800000000000    0.6256100000000000    Ne0004
    0.4901200000000000    0.0916500000000000    0.6256100000000000    Ne0005
    0.7401200000000000    0.2583200000000000    0.6256100000000000    Ne0006
    0.4901200000000000    0.7583200000000000    0.6256100000000000    Ne0007
    0.7401200000000000    0.5916500000000000    0.6256100000000000    Ne0008
    0.2401200000000000    0.5916500000000000    0.6256100000000000    Ne0009
    0.7401200000000000    0.9249800000000000    0.6256100000000000    Ne0010
    0.4901200000000000    0.4249800000000000    0.6256100000000000    Ne0011
    0.2401200000000000    0.2583200000000000    0.6256100000000000    Ne0012
