Generated by ATOMKIT code
 1.000000
    9.9204000000000008    0.0000000000000000    0.0000000000000000
    0.0000000000000005    8.5913000000000004    0.0000000000000000
    0.0000000000000012    0.0000000000000012   20.0000000000000000
      Al
      36
Selective Dynamics
Direct
0.0833300000 0.1666700000 0.0500000000 F F F
0.3333300000 0.0000000000 0.0500000000 F F F
0.5833300000 0.1666700000 0.0500000000 F F F
0.8333300000 0.0000000000 0.0500000000 F F F
0.0833300000 0.5000000000 0.0500000000 F F F
0.3333300000 0.3333300000 0.0500000000 F F F
0.5833300000 0.5000000000 0.0500000000 F F F
0.8333300000 0.3333300000 0.0500000000 F F F
0.0833300000 0.8333300000 0.0500000000 F F F
0.3333300000 0.6666700000 0.0500000000 F F F
0.5833300000 0.8333300000 0.0500000000 F F F
0.8333300000 0.6666700000 0.0500000000 F F F
0.1666700000 0.3333300000 0.1669100000 F F F
0.4166700000 0.1666700000 0.1669100000 F F F
0.4166700000 0.5000000000 0.1669100000 F F F
0.1666700000 0.0000000000 0.1669100000 F F F
0.6666700000 0.3333300000 0.1669100000 F F F
0.9166700000 0.5000000000 0.1669100000 F F F
0.6666700000 0.0000000000 0.1669100000 F F F
0.1666700000 0.6666700000 0.1669100000 F F F
0.4166700000 0.8333300000 0.1669100000 F F F
0.6666700000 0.6666700000 0.1669100000 F F F
0.9166700000 0.1666700000 0.1669100000 F F F
0.9166700000 0.8333300000 0.1669100000 F F F
0.0000000000 0.6666700000 0.2838300000 F F F
0.0000000000 0.3333300000 0.2838300000 F F F
0.0000000000 0.0000000000 0.2838300000 F F F
0.2500000000 0.8333300000 0.2838300000 F F F
0.5000000000 0.0000000000 0.2838300000 F F F
0.7500000000 0.1666700000 0.2838300000 F F F
0.5000000000 0.6666700000 0.2838300000 F F F
0.7500000000 0.5000000000 0.2838300000 F F F
0.2500000000 0.5000000000 0.2838300000 F F F
0.7500000000 0.8333300000 0.2838300000 F F F
0.5000000000 0.3333300000 0.2838300000 F F F
0.2500000000 0.1666700000 0.2838300000 F F F
